p cnf 214 1010
122 134 0
80 117 146 193 0
141 145 0
90 103 110 0
159 162 0
127 165 170 0
111 115 136 138 0
135 144 0
124 128 129 191 0
140 151 152 0
107 108 0
89 97 101 104 0
93 95 196 0
65 132 148 0
87 126 0
86 118 207 0
76 79 98 99 0
88 91 120 0
70 73 84 0
64 68 149 155 0
133 156 160 163 164 166 0
167 169 171 173 176 0
178 180 182 183 184 0
186 187 189 0
119 130 143 190 0
123 153 192 0
75 77 105 0
94 96 121 195 197 0
74 85 198 200 201 0
157 161 0
125 168 0
179 203 204 0
113 116 205 206 0
81 147 154 194 208 0
100 109 142 209 0
78 92 0
71 199 210 212 214 0
67 83 202 0
61 62 63 158 0
56 58 59 60 177 0
181 185 0
54 188 0
-112 -134 0
-112 -193 0
-112 -141 0
-103 -112 0
-53 -112 0
-82 -112 0
-134 -193 0
-134 -141 0
-103 -134 0
-53 -134 0
-82 -134 0
-141 -193 0
-103 -193 0
-53 -193 0
-82 -193 0
-103 -141 0
-53 -141 0
-82 -141 0
-53 -103 0
-82 -103 0
-53 -82 0
-104 -108 0
-95 -108 0
-52 -108 0
-108 -148 0
-51 -108 0
-50 -108 0
-95 -104 0
-52 -104 0
-104 -148 0
-51 -104 0
-50 -104 0
-52 -95 0
-95 -148 0
-51 -95 0
-50 -95 0
-52 -148 0
-51 -52 0
-50 -52 0
-51 -148 0
-50 -148 0
-50 -51 0
-47 -48 0
-48 -87 0
-48 -86 0
-48 -99 0
-48 -91 0
-45 -48 0
-47 -87 0
-47 -86 0
-47 -99 0
-47 -91 0
-45 -47 0
-86 -87 0
-87 -99 0
-87 -91 0
-45 -87 0
-86 -99 0
-86 -91 0
-45 -86 0
-91 -99 0
-45 -99 0
-45 -91 0
-68 -73 0
-73 -156 0
-73 -167 0
-73 -178 0
-73 -186 0
-73 -190 0
-68 -156 0
-68 -167 0
-68 -178 0
-68 -186 0
-68 -190 0
-156 -167 0
-156 -178 0
-156 -186 0
-156 -190 0
-167 -178 0
-167 -186 0
-167 -190 0
-178 -186 0
-178 -190 0
-186 -190 0
-150 -192 0
-77 -192 0
-121 -192 0
-192 -198 0
-43 -192 0
-125 -192 0
-77 -150 0
-121 -150 0
-150 -198 0
-43 -150 0
-125 -150 0
-77 -121 0
-77 -198 0
-43 -77 0
-77 -125 0
-121 -198 0
-43 -121 0
-121 -125 0
-43 -198 0
-125 -198 0
-43 -125 0
-42 -203 0
-41 -42 0
-42 -116 0
-42 -81 0
-42 -209 0
-40 -42 0
-41 -203 0
-116 -203 0
-81 -203 0
-203 -209 0
-40 -203 0
-41 -116 0
-41 -81 0
-41 -209 0
-40 -41 0
-81 -116 0
-116 -209 0
-40 -116 0
-81 -209 0
-40 -81 0
-40 -209 0
-39 -210 0
-39 -202 0
-39 -63 0
-38 -39 0
-39 -60 0
-39 -54 0
-202 -210 0
-63 -210 0
-38 -210 0
-60 -210 0
-54 -210 0
-63 -202 0
-38 -202 0
-60 -202 0
-54 -202 0
-38 -63 0
-60 -63 0
-54 -63 0
-38 -60 0
-38 -54 0
-54 -60 0
-108 -112 0
-48 -112 0
-73 -112 0
-112 -192 0
-42 -112 0
-39 -112 0
-48 -108 0
-73 -108 0
-108 -192 0
-42 -108 0
-39 -108 0
-48 -73 0
-48 -192 0
-42 -48 0
-39 -48 0
-73 -192 0
-42 -73 0
-39 -73 0
-42 -192 0
-39 -192 0
-39 -42 0
-104 -134 0
-47 -134 0
-68 -134 0
-134 -150 0
-134 -203 0
-134 -210 0
-47 -104 0
-68 -104 0
-104 -150 0
-104 -203 0
-104 -210 0
-47 -68 0
-47 -150 0
-47 -203 0
-47 -210 0
-68 -150 0
-68 -203 0
-68 -210 0
-150 -203 0
-150 -210 0
-203 -210 0
-95 -193 0
-87 -193 0
-156 -193 0
-77 -193 0
-41 -193 0
-193 -202 0
-87 -95 0
-95 -156 0
-77 -95 0
-41 -95 0
-95 -202 0
-87 -156 0
-77 -87 0
-41 -87 0
-87 -202 0
-77 -156 0
-41 -156 0
-156 -202 0
-41 -77 0
-77 -202 0
-41 -202 0
-52 -141 0
-86 -141 0
-141 -167 0
-121 -141 0
-116 -141 0
-63 -141 0
-52 -86 0
-52 -167 0
-52 -121 0
-52 -116 0
-52 -63 0
-86 -167 0
-86 -121 0
-86 -116 0
-63 -86 0
-121 -167 0
-116 -167 0
-63 -167 0
-116 -121 0
-63 -121 0
-63 -116 0
-103 -148 0
-99 -103 0
-103 -178 0
-103 -198 0
-81 -103 0
-38 -103 0
-99 -148 0
-148 -178 0
-148 -198 0
-81 -148 0
-38 -148 0
-99 -178 0
-99 -198 0
-81 -99 0
-38 -99 0
-178 -198 0
-81 -178 0
-38 -178 0
-81 -198 0
-38 -198 0
-38 -81 0
-51 -53 0
-53 -91 0
-53 -186 0
-43 -53 0
-53 -209 0
-53 -60 0
-51 -91 0
-51 -186 0
-43 -51 0
-51 -209 0
-51 -60 0
-91 -186 0
-43 -91 0
-91 -209 0
-60 -91 0
-43 -186 0
-186 -209 0
-60 -186 0
-43 -209 0
-43 -60 0
-60 -209 0
-50 -82 0
-45 -82 0
-82 -190 0
-82 -125 0
-40 -82 0
-54 -82 0
-45 -50 0
-50 -190 0
-50 -125 0
-40 -50 0
-50 -54 0
-45 -190 0
-45 -125 0
-40 -45 0
-45 -54 0
-125 -190 0
-40 -190 0
-54 -190 0
-40 -125 0
-54 -125 0
-40 -54 0
-117 -122 0
-122 -145 0
-90 -122 0
-37 -122 0
-36 -122 0
-69 -122 0
-117 -145 0
-90 -117 0
-37 -117 0
-36 -117 0
-69 -117 0
-90 -145 0
-37 -145 0
-36 -145 0
-69 -145 0
-37 -90 0
-36 -90 0
-69 -90 0
-36 -37 0
-37 -69 0
-36 -69 0
-127 -172 0
-35 -127 0
-127 -136 0
-127 -135 0
-124 -127 0
-127 -152 0
-35 -172 0
-136 -172 0
-135 -172 0
-124 -172 0
-152 -172 0
-35 -136 0
-35 -135 0
-35 -124 0
-35 -152 0
-135 -136 0
-124 -136 0
-136 -152 0
-124 -135 0
-135 -152 0
-124 -152 0
-101 -196 0
-34 -101 0
-65 -101 0
-33 -101 0
-32 -101 0
-31 -101 0
-34 -196 0
-65 -196 0
-33 -196 0
-32 -196 0
-31 -196 0
-34 -65 0
-33 -34 0
-32 -34 0
-31 -34 0
-33 -65 0
-32 -65 0
-31 -65 0
-32 -33 0
-31 -33 0
-31 -32 0
-149 -160 0
-149 -169 0
-149 -180 0
-149 -187 0
-137 -149 0
-143 -149 0
-160 -169 0
-160 -180 0
-160 -187 0
-137 -160 0
-143 -160 0
-169 -180 0
-169 -187 0
-137 -169 0
-143 -169 0
-180 -187 0
-137 -180 0
-143 -180 0
-137 -187 0
-143 -187 0
-137 -143 0
-30 -75 0
-30 -195 0
-30 -74 0
-29 -30 0
-30 -157 0
-30 -168 0
-75 -195 0
-74 -75 0
-29 -75 0
-75 -157 0
-75 -168 0
-74 -195 0
-29 -195 0
-157 -195 0
-168 -195 0
-29 -74 0
-74 -157 0
-74 -168 0
-29 -157 0
-29 -168 0
-157 -168 0
-28 -179 0
-113 -179 0
-179 -194 0
-142 -179 0
-78 -179 0
-102 -179 0
-28 -113 0
-28 -194 0
-28 -142 0
-28 -78 0
-28 -102 0
-113 -194 0
-113 -142 0
-78 -113 0
-102 -113 0
-142 -194 0
-78 -194 0
-102 -194 0
-78 -142 0
-102 -142 0
-78 -102 0
-83 -199 0
-62 -199 0
-27 -199 0
-59 -199 0
-181 -199 0
-188 -199 0
-62 -83 0
-27 -83 0
-59 -83 0
-83 -181 0
-83 -188 0
-27 -62 0
-59 -62 0
-62 -181 0
-62 -188 0
-27 -59 0
-27 -181 0
-27 -188 0
-59 -181 0
-59 -188 0
-181 -188 0
-122 -127 0
-101 -122 0
-122 -149 0
-30 -122 0
-122 -179 0
-122 -199 0
-101 -127 0
-127 -149 0
-30 -127 0
-127 -179 0
-127 -199 0
-101 -149 0
-30 -101 0
-101 -179 0
-101 -199 0
-30 -149 0
-149 -179 0
-149 -199 0
-30 -179 0
-30 -199 0
-179 -199 0
-117 -172 0
-117 -196 0
-117 -160 0
-75 -117 0
-28 -117 0
-83 -117 0
-172 -196 0
-160 -172 0
-75 -172 0
-28 -172 0
-83 -172 0
-160 -196 0
-75 -196 0
-28 -196 0
-83 -196 0
-75 -160 0
-28 -160 0
-83 -160 0
-28 -75 0
-75 -83 0
-28 -83 0
-35 -145 0
-34 -145 0
-145 -169 0
-145 -195 0
-113 -145 0
-62 -145 0
-34 -35 0
-35 -169 0
-35 -195 0
-35 -113 0
-35 -62 0
-34 -169 0
-34 -195 0
-34 -113 0
-34 -62 0
-169 -195 0
-113 -169 0
-62 -169 0
-113 -195 0
-62 -195 0
-62 -113 0
-90 -136 0
-65 -90 0
-90 -180 0
-74 -90 0
-90 -194 0
-27 -90 0
-65 -136 0
-136 -180 0
-74 -136 0
-136 -194 0
-27 -136 0
-65 -180 0
-65 -74 0
-65 -194 0
-27 -65 0
-74 -180 0
-180 -194 0
-27 -180 0
-74 -194 0
-27 -74 0
-27 -194 0
-37 -135 0
-33 -37 0
-37 -187 0
-29 -37 0
-37 -142 0
-37 -59 0
-33 -135 0
-135 -187 0
-29 -135 0
-135 -142 0
-59 -135 0
-33 -187 0
-29 -33 0
-33 -142 0
-33 -59 0
-29 -187 0
-142 -187 0
-59 -187 0
-29 -142 0
-29 -59 0
-59 -142 0
-36 -124 0
-32 -36 0
-36 -137 0
-36 -157 0
-36 -78 0
-36 -181 0
-32 -124 0
-124 -137 0
-124 -157 0
-78 -124 0
-124 -181 0
-32 -137 0
-32 -157 0
-32 -78 0
-32 -181 0
-137 -157 0
-78 -137 0
-137 -181 0
-78 -157 0
-157 -181 0
-78 -181 0
-69 -152 0
-31 -69 0
-69 -143 0
-69 -168 0
-69 -102 0
-69 -188 0
-31 -152 0
-143 -152 0
-152 -168 0
-102 -152 0
-152 -188 0
-31 -143 0
-31 -168 0
-31 -102 0
-31 -188 0
-143 -168 0
-102 -143 0
-143 -188 0
-102 -168 0
-168 -188 0
-102 -188 0
-165 -175 0
-57 -165 0
-129 -165 0
-57 -175 0
-129 -175 0
-57 -129 0
-89 -93 0
-26 -89 0
-25 -89 0
-26 -93 0
-25 -93 0
-25 -26 0
-64 -163 0
-64 -171 0
-64 -114 0
-163 -171 0
-114 -163 0
-114 -171 0
-24 -105 0
-24 -96 0
-24 -161 0
-96 -105 0
-105 -161 0
-96 -161 0
-89 -165 0
-64 -165 0
-24 -165 0
-64 -89 0
-24 -89 0
-24 -64 0
-93 -175 0
-163 -175 0
-105 -175 0
-93 -163 0
-93 -105 0
-105 -163 0
-26 -57 0
-57 -171 0
-57 -96 0
-26 -171 0
-26 -96 0
-96 -171 0
-25 -129 0
-114 -129 0
-129 -161 0
-25 -114 0
-25 -161 0
-114 -161 0
-97 -107 0
-23 -107 0
-107 -132 0
-22 -107 0
-23 -97 0
-97 -132 0
-22 -97 0
-23 -132 0
-22 -23 0
-22 -132 0
-20 -21 0
-21 -118 0
-21 -98 0
-21 -88 0
-20 -118 0
-20 -98 0
-20 -88 0
-98 -118 0
-88 -118 0
-88 -98 0
-123 -139 0
-94 -123 0
-123 -200 0
-19 -123 0
-94 -139 0
-139 -200 0
-19 -139 0
-94 -200 0
-19 -94 0
-19 -200 0
-18 -204 0
-18 -205 0
-18 -208 0
-18 -109 0
-204 -205 0
-204 -208 0
-109 -204 0
-205 -208 0
-109 -205 0
-109 -208 0
-17 -212 0
-17 -61 0
-17 -174 0
-17 -58 0
-61 -212 0
-174 -212 0
-58 -212 0
-61 -174 0
-58 -61 0
-58 -174 0
-21 -107 0
-107 -123 0
-18 -107 0
-17 -107 0
-21 -123 0
-18 -21 0
-17 -21 0
-18 -123 0
-17 -123 0
-17 -18 0
-20 -97 0
-97 -139 0
-97 -204 0
-97 -212 0
-20 -139 0
-20 -204 0
-20 -212 0
-139 -204 0
-139 -212 0
-204 -212 0
-23 -118 0
-23 -94 0
-23 -205 0
-23 -61 0
-94 -118 0
-118 -205 0
-61 -118 0
-94 -205 0
-61 -94 0
-61 -205 0
-98 -132 0
-132 -200 0
-132 -208 0
-132 -174 0
-98 -200 0
-98 -208 0
-98 -174 0
-200 -208 0
-174 -200 0
-174 -208 0
-22 -88 0
-19 -22 0
-22 -109 0
-22 -58 0
-19 -88 0
-88 -109 0
-58 -88 0
-19 -109 0
-19 -58 0
-58 -109 0
-72 -146 0
-66 -146 0
-66 -72 0
-16 -191 0
-16 -151 0
-151 -191 0
-14 -133 0
-119 -133 0
-14 -119 0
-16 -146 0
-133 -146 0
-16 -133 0
-72 -191 0
-14 -72 0
-14 -191 0
-66 -151 0
-66 -119 0
-119 -151 0
-13 -80 0
-13 -110 0
-12 -13 0
-13 -213 0
-80 -110 0
-12 -80 0
-80 -213 0
-12 -110 0
-110 -213 0
-12 -213 0
-10 -159 0
-138 -159 0
-144 -159 0
-128 -159 0
-10 -138 0
-10 -144 0
-10 -128 0
-138 -144 0
-128 -138 0
-128 -144 0
-84 -164 0
-84 -182 0
-84 -189 0
-8 -84 0
-164 -182 0
-164 -189 0
-8 -164 0
-182 -189 0
-8 -182 0
-8 -189 0
-46 -49 0
-49 -147 0
-49 -100 0
-49 -92 0
-46 -147 0
-46 -100 0
-46 -92 0
-100 -147 0
-92 -147 0
-92 -100 0
-44 -67 0
-15 -44 0
-44 -177 0
-44 -185 0
-15 -67 0
-67 -177 0
-67 -185 0
-15 -177 0
-15 -185 0
-177 -185 0
-13 -159 0
-13 -84 0
-13 -49 0
-13 -44 0
-84 -159 0
-49 -159 0
-44 -159 0
-49 -84 0
-44 -84 0
-44 -49 0
-10 -80 0
-80 -164 0
-46 -80 0
-67 -80 0
-10 -164 0
-10 -46 0
-10 -67 0
-46 -164 0
-67 -164 0
-46 -67 0
-110 -138 0
-110 -182 0
-110 -147 0
-15 -110 0
-138 -182 0
-138 -147 0
-15 -138 0
-147 -182 0
-15 -182 0
-15 -147 0
-12 -144 0
-12 -189 0
-12 -100 0
-12 -177 0
-144 -189 0
-100 -144 0
-144 -177 0
-100 -189 0
-177 -189 0
-100 -177 0
-128 -213 0
-8 -213 0
-92 -213 0
-185 -213 0
-8 -128 0
-92 -128 0
-128 -185 0
-8 -92 0
-8 -185 0
-92 -185 0
-162 -170 0
-7 -162 0
-115 -162 0
-7 -170 0
-115 -170 0
-7 -115 0
-70 -155 0
-70 -173 0
-70 -183 0
-155 -173 0
-155 -183 0
-173 -183 0
-6 -153 0
-153 -197 0
-85 -153 0
-6 -197 0
-6 -85 0
-85 -197 0
-11 -214 0
-11 -158 0
-9 -11 0
-158 -214 0
-9 -214 0
-9 -158 0
-70 -162 0
-153 -162 0
-11 -162 0
-70 -153 0
-11 -70 0
-11 -153 0
-155 -170 0
-6 -170 0
-170 -214 0
-6 -155 0
-155 -214 0
-6 -214 0
-7 -173 0
-7 -197 0
-7 -158 0
-173 -197 0
-158 -173 0
-158 -197 0
-115 -183 0
-85 -115 0
-9 -115 0
-85 -183 0
-9 -183 0
-9 -85 0
-5 -55 0
-5 -111 0
-5 -140 0
-55 -111 0
-55 -140 0
-111 -140 0
-126 -207 0
-79 -126 0
-126 -211 0
-79 -207 0
-207 -211 0
-79 -211 0
-166 -176 0
-166 -184 0
-130 -166 0
-176 -184 0
-130 -176 0
-130 -184 0
-3 -206 0
-3 -154 0
-2 -3 0
-154 -206 0
-2 -206 0
-2 -154 0
-5 -126 0
-5 -166 0
-3 -5 0
-126 -166 0
-3 -126 0
-3 -166 0
-55 -207 0
-55 -176 0
-55 -206 0
-176 -207 0
-206 -207 0
-176 -206 0
-79 -111 0
-111 -184 0
-111 -154 0
-79 -184 0
-79 -154 0
-154 -184 0
-140 -211 0
-130 -140 0
-2 -140 0
-130 -211 0
-2 -211 0
-2 -130 0
-1 -76 0
-1 -120 0
-76 -120 0
-106 -201 0
-106 -131 0
-131 -201 0
-4 -71 0
-56 -71 0
-4 -56 0
-1 -106 0
-1 -71 0
-71 -106 0
-76 -201 0
-4 -76 0
-4 -201 0
-120 -131 0
-56 -120 0
-56 -131 0
